p edge 50 135 5
v 14 4 5 6 15 17 18 20 21 27 35 36 38 44 45
v 10 2 7 11 29 33 34 39 47 49 50
v 9 3 10 12 14 19 22 24 26 48
v 11 8 9 13 16 28 30 31 32 37 40 46
v 6 1 23 25 41 42 43
e 1 5
e 1 6
e 1 7
e 1 12
e 1 25
e 1 30
e 1 43
e 1 50
e 2 8
e 2 9
e 2 19
e 2 21
e 2 41
e 2 47
e 3 6
e 3 16
e 3 31
e 3 33
e 4 6
e 4 7
e 4 11
e 4 13
e 4 21
e 4 28
e 5 6
e 5 38
e 5 43
e 5 48
e 5 49
e 5 50
e 6 8
e 6 9
e 6 13
e 6 30
e 6 32
e 6 40
e 7 8
e 7 11
e 7 12
e 7 14
e 7 32
e 7 45
e 8 18
e 8 31
e 8 36
e 8 44
e 8 47
e 9 19
e 9 20
e 9 38
e 9 43
e 9 50
e 10 12
e 10 15
e 10 19
e 10 44
e 11 14
e 11 30
e 11 31
e 11 40
e 11 46
e 12 30
e 12 35
e 13 17
e 13 38
e 13 42
e 13 48
e 13 50
e 14 29
e 14 30
e 14 33
e 14 41
e 15 32
e 15 35
e 15 46
e 16 25
e 16 41
e 17 20
e 17 28
e 18 19
e 18 32
e 18 42
e 18 44
e 18 45
e 18 49
e 18 50
e 19 42
e 20 24
e 20 39
e 21 41
e 22 23
e 22 39
e 22 40
e 23 24
e 23 40
e 23 50
e 24 27
e 24 36
e 24 42
e 24 50
e 25 30
e 25 33
e 25 34
e 25 41
e 25 45
e 25 46
e 26 41
e 26 50
e 27 41
e 27 42
e 27 48
e 27 50
e 28 39
e 28 45
e 28 47
e 30 43
e 30 46
e 31 47
e 32 34
e 32 35
e 33 36
e 33 40
e 33 41
e 33 43
e 35 41
e 35 43
e 37 42
e 38 43
e 38 50
e 40 42
e 40 47
e 43 47
e 43 50
e 45 49
e 46 49
